p edge 50 613
e 1 3
e 1 5
e 1 6
e 1 7
e 1 13
e 1 15
e 1 16
e 1 17
e 1 18
e 1 21
e 1 25
e 1 26
e 1 31
e 1 34
e 1 35
e 1 37
e 1 39
e 1 40
e 1 42
e 1 50
e 2 3
e 2 4
e 2 5
e 2 6
e 2 7
e 2 8
e 2 9
e 2 10
e 2 12
e 2 14
e 2 16
e 2 23
e 2 24
e 2 25
e 2 26
e 2 27
e 2 32
e 2 33
e 2 35
e 2 39
e 2 40
e 2 41
e 2 43
e 2 44
e 2 47
e 2 48
e 3 4
e 3 6
e 3 7
e 3 9
e 3 10
e 3 11
e 3 13
e 3 15
e 3 16
e 3 19
e 3 26
e 3 31
e 3 32
e 3 33
e 3 34
e 3 38
e 3 40
e 3 41
e 3 42
e 3 46
e 3 48
e 4 9
e 4 10
e 4 12
e 4 13
e 4 15
e 4 17
e 4 18
e 4 20
e 4 22
e 4 24
e 4 25
e 4 26
e 4 28
e 4 32
e 4 34
e 4 35
e 4 36
e 4 38
e 4 44
e 4 47
e 4 48
e 4 49
e 4 50
e 5 8
e 5 9
e 5 13
e 5 15
e 5 16
e 5 19
e 5 20
e 5 21
e 5 22
e 5 25
e 5 28
e 5 33
e 5 35
e 5 37
e 5 40
e 5 41
e 5 42
e 5 49
e 6 7
e 6 8
e 6 9
e 6 12
e 6 13
e 6 14
e 6 16
e 6 17
e 6 18
e 6 20
e 6 21
e 6 22
e 6 23
e 6 25
e 6 26
e 6 28
e 6 29
e 6 30
e 6 31
e 6 32
e 6 33
e 6 34
e 6 35
e 6 36
e 6 37
e 6 39
e 6 44
e 6 49
e 6 50
e 7 9
e 7 10
e 7 12
e 7 13
e 7 14
e 7 17
e 7 18
e 7 19
e 7 23
e 7 24
e 7 27
e 7 29
e 7 31
e 7 33
e 7 34
e 7 35
e 7 36
e 7 37
e 7 39
e 7 40
e 7 41
e 7 43
e 7 50
e 8 9
e 8 11
e 8 12
e 8 13
e 8 19
e 8 20
e 8 22
e 8 23
e 8 25
e 8 27
e 8 28
e 8 29
e 8 30
e 8 33
e 8 34
e 8 35
e 8 38
e 8 40
e 8 41
e 8 45
e 8 47
e 8 49
e 8 50
e 9 11
e 9 15
e 9 16
e 9 17
e 9 18
e 9 19
e 9 20
e 9 21
e 9 26
e 9 30
e 9 35
e 9 38
e 9 40
e 9 42
e 9 43
e 9 44
e 9 46
e 9 48
e 9 49
e 9 50
e 10 12
e 10 13
e 10 14
e 10 16
e 10 19
e 10 25
e 10 27
e 10 28
e 10 29
e 10 31
e 10 33
e 10 34
e 10 35
e 10 36
e 10 38
e 10 41
e 10 42
e 10 43
e 10 44
e 10 50
e 11 13
e 11 14
e 11 18
e 11 20
e 11 22
e 11 23
e 11 25
e 11 26
e 11 28
e 11 30
e 11 31
e 11 34
e 11 35
e 11 36
e 11 37
e 11 39
e 11 40
e 11 41
e 11 43
e 11 45
e 11 47
e 11 48
e 11 49
e 12 15
e 12 16
e 12 17
e 12 20
e 12 21
e 12 22
e 12 23
e 12 24
e 12 27
e 12 29
e 12 30
e 12 31
e 12 34
e 12 37
e 12 43
e 12 49
e 13 15
e 13 17
e 13 19
e 13 20
e 13 21
e 13 23
e 13 29
e 13 30
e 13 31
e 13 33
e 13 34
e 13 35
e 13 36
e 13 37
e 13 38
e 13 40
e 13 41
e 13 42
e 13 45
e 13 46
e 13 47
e 13 50
e 14 15
e 14 16
e 14 19
e 14 21
e 14 24
e 14 26
e 14 27
e 14 29
e 14 31
e 14 34
e 14 36
e 14 37
e 14 39
e 14 41
e 14 42
e 14 43
e 14 45
e 14 46
e 15 18
e 15 19
e 15 22
e 15 23
e 15 24
e 15 25
e 15 28
e 15 29
e 15 30
e 15 32
e 15 34
e 15 44
e 15 46
e 15 48
e 15 50
e 16 20
e 16 21
e 16 24
e 16 26
e 16 27
e 16 29
e 16 30
e 16 31
e 16 33
e 16 35
e 16 37
e 16 40
e 16 41
e 16 42
e 16 45
e 16 46
e 16 47
e 16 49
e 17 19
e 17 20
e 17 21
e 17 23
e 17 25
e 17 27
e 17 32
e 17 35
e 17 36
e 17 37
e 17 39
e 17 41
e 17 43
e 17 45
e 17 47
e 18 19
e 18 20
e 18 21
e 18 22
e 18 23
e 18 25
e 18 26
e 18 30
e 18 34
e 18 36
e 18 41
e 18 42
e 18 46
e 18 48
e 18 50
e 19 21
e 19 22
e 19 29
e 19 31
e 19 32
e 19 33
e 19 34
e 19 36
e 19 37
e 19 38
e 19 39
e 19 41
e 19 42
e 19 43
e 19 45
e 19 46
e 19 49
e 19 50
e 20 21
e 20 23
e 20 24
e 20 26
e 20 30
e 20 33
e 20 34
e 20 37
e 20 38
e 20 42
e 20 43
e 20 45
e 20 46
e 20 47
e 21 24
e 21 25
e 21 26
e 21 28
e 21 29
e 21 33
e 21 35
e 21 36
e 21 37
e 21 38
e 21 39
e 21 42
e 21 44
e 21 45
e 21 46
e 21 48
e 22 23
e 22 24
e 22 29
e 22 31
e 22 32
e 22 33
e 22 34
e 22 39
e 22 40
e 22 44
e 22 45
e 22 46
e 22 47
e 22 48
e 22 49
e 23 24
e 23 25
e 23 26
e 23 27
e 23 29
e 23 31
e 23 33
e 23 34
e 23 35
e 23 36
e 23 37
e 23 39
e 23 41
e 23 42
e 23 46
e 23 48
e 23 49
e 24 25
e 24 28
e 24 29
e 24 31
e 24 32
e 24 33
e 24 35
e 24 38
e 24 39
e 24 40
e 24 41
e 24 42
e 24 45
e 24 48
e 24 49
e 24 50
e 25 26
e 25 33
e 25 34
e 25 35
e 25 37
e 25 39
e 25 41
e 25 42
e 25 43
e 25 44
e 25 47
e 25 48
e 25 49
e 26 27
e 26 30
e 26 32
e 26 34
e 26 37
e 26 42
e 26 47
e 26 48
e 26 50
e 27 29
e 27 30
e 27 38
e 27 41
e 27 43
e 27 44
e 27 46
e 27 48
e 27 49
e 27 50
e 28 30
e 28 31
e 28 32
e 28 37
e 28 39
e 28 42
e 28 44
e 28 46
e 28 48
e 28 50
e 29 34
e 29 35
e 29 37
e 29 38
e 29 39
e 29 41
e 29 43
e 29 45
e 29 47
e 29 48
e 29 49
e 29 50
e 30 31
e 30 32
e 30 34
e 30 36
e 30 39
e 30 40
e 30 42
e 30 46
e 30 47
e 30 48
e 31 32
e 31 35
e 31 36
e 31 39
e 31 41
e 31 44
e 31 46
e 31 47
e 31 48
e 31 50
e 32 35
e 32 36
e 32 37
e 32 39
e 32 40
e 32 41
e 32 44
e 32 46
e 32 47
e 32 50
e 33 34
e 33 40
e 33 45
e 33 46
e 33 47
e 34 35
e 34 39
e 34 42
e 34 43
e 34 45
e 34 47
e 34 49
e 35 36
e 35 37
e 35 43
e 35 44
e 35 45
e 35 47
e 35 50
e 36 38
e 36 39
e 36 40
e 36 41
e 36 43
e 36 46
e 36 49
e 36 50
e 37 46
e 37 47
e 37 48
e 37 50
e 38 40
e 38 41
e 38 45
e 38 46
e 39 41
e 39 43
e 39 44
e 39 47
e 39 49
e 40 44
e 40 45
e 40 46
e 40 48
e 40 49
e 41 43
e 41 44
e 41 45
e 41 50
e 42 45
e 42 48
e 42 50
e 43 44
e 43 45
e 43 47
e 43 48
e 43 49
e 44 45
e 44 47
e 44 49
e 44 50
e 45 46
e 45 48
e 45 49
e 46 48
e 47 50
e 48 49
e 49 50
